
******************************************************************************
This program contains Ipopt, a library for large-scale nonlinear optimization.
 Ipopt is released as open source code under the Eclipse Public License (EPL).
         For more information visit https://github.com/coin-or/Ipopt
******************************************************************************

This is Ipopt version 3.14.19, running with linear solver MUMPS 5.8.1.

Number of nonzeros in equality constraint Jacobian...:     2204
Number of nonzeros in inequality constraint Jacobian.:        0
Number of nonzeros in Lagrangian Hessian.............:      525

Total number of variables............................:      647
                     variables with only lower bounds:        0
                variables with lower and upper bounds:      232
                     variables with only upper bounds:        0
Total number of equality constraints.................:      639
Total number of inequality constraints...............:        0
        inequality constraints with only lower bounds:        0
   inequality constraints with lower and upper bounds:        0
        inequality constraints with only upper bounds:        0

iter    objective    inf_pr   inf_du lg(mu)  ||d||  lg(rg) alpha_du alpha_pr  ls
   0  4.9485312e+00 9.90e+01 3.91e-04  -1.0 0.00e+00    -  0.00e+00 0.00e+00   0
   1  4.9558930e+00 1.49e+01 7.98e+01  -1.0 9.85e+01    -  1.23e-02 1.00e+00h  1
   2  4.9601133e+00 1.47e+00 3.06e-01  -1.0 9.60e+00    -  9.86e-01 1.00e+00h  1
   3  4.9605940e+00 8.03e-02 2.71e+00  -1.0 2.25e+00    -  6.80e-01 1.00e+00h  1
   4  4.9639093e+00 5.58e-04 9.59e-04  -1.0 1.52e+00    -  1.00e+00 1.00e+00h  1
   5  4.9558583e+00 9.57e-01 4.26e-03  -2.5 1.27e+00    -  1.00e+00 1.00e+00h  1
   6  4.9537964e+00 1.74e-01 4.09e-04  -2.5 1.55e+00    -  1.00e+00 1.00e+00h  1
   7  4.9535521e+00 3.80e-04 6.78e-06  -2.5 2.28e-01    -  1.00e+00 1.00e+00h  1
   8  4.9518595e+00 2.66e-03 9.48e-02  -3.8 9.40e-01    -  7.64e-01 1.00e+00h  1
   9  4.9483706e+00 2.16e-03 1.38e-03  -3.8 1.99e+00    -  1.00e+00 1.00e+00h  1
iter    objective    inf_pr   inf_du lg(mu)  ||d||  lg(rg) alpha_du alpha_pr  ls
  10  4.9473666e+00 2.83e-04 1.14e-04  -3.8 6.14e-01    -  1.00e+00 1.00e+00h  1
  11  4.9464074e+00 8.61e-05 1.22e-03  -5.7 5.84e-01    -  9.13e-01 1.00e+00h  1
  12  4.9463127e+00 2.77e-06 9.58e-07  -5.7 5.40e-02    -  1.00e+00 1.00e+00h  1
  13  4.9462974e+00 2.65e-08 5.39e-08  -8.6 8.99e-03    -  1.00e+00 1.00e+00h  1
  14  4.9462974e+00 1.30e-13 3.51e-14  -8.6 9.94e-06    -  1.00e+00 1.00e+00h  1

Number of Iterations....: 14

                                   (scaled)                 (unscaled)
Objective...............:   4.9462973653633036e+00    4.9462973653633036e+00
Dual infeasibility......:   3.5083047578154947e-14    3.5083047578154947e-14
Constraint violation....:   1.2967404927341365e-13    1.2967404927341365e-13
Variable bound violation:   0.0000000000000000e+00    0.0000000000000000e+00
Complementarity.........:   2.5086842651830314e-09    2.5086842651830314e-09
Overall NLP error.......:   2.5086842651830314e-09    2.5086842651830314e-09


Number of objective function evaluations             = 15
Number of objective gradient evaluations             = 15
Number of equality constraint evaluations            = 15
Number of inequality constraint evaluations          = 0
Number of equality constraint Jacobian evaluations   = 15
Number of inequality constraint Jacobian evaluations = 0
Number of Lagrangian Hessian evaluations             = 14
Total seconds in IPOPT                               = 0.080

EXIT: Optimal Solution Found.
